p cnf 362 1860
1 2 3 4 5 0
-1 -246 0
-1 -247 0
-1 -248 0
-2 246 0
-2 -247 0
-2 -248 0
-3 -246 0
-3 247 0
-3 -248 0
-4 246 0
-4 247 0
-4 -248 0
-5 -246 0
-5 -247 0
-5 248 0
-1 36 0
-1 6 0
-2 37 0
-2 7 0
-3 38 0
-3 8 0
-4 39 0
-4 9 0
-5 40 0
-5 10 0
6 7 8 9 10 0
-6 -249 0
-6 -250 0
-6 -251 0
-7 249 0
-7 -250 0
-7 -251 0
-8 -249 0
-8 250 0
-8 -251 0
-9 249 0
-9 250 0
-9 -251 0
-10 -249 0
-10 -250 0
-10 251 0
-6 1 11 0
-6 1 41 0
-6 11 41 0
-7 2 12 0
-7 2 42 0
-7 12 42 0
-8 3 13 0
-8 3 43 0
-8 13 43 0
-9 4 14 0
-9 4 44 0
-9 14 44 0
-10 5 15 0
-10 5 45 0
-10 15 45 0
-6 -1 -11 -41 0
-7 -2 -12 -42 0
-8 -3 -13 -43 0
-9 -4 -14 -44 0
-10 -5 -15 -45 0
11 12 13 14 15 0
-11 -252 0
-11 -253 0
-11 -254 0
-12 252 0
-12 -253 0
-12 -254 0
-13 -252 0
-13 253 0
-13 -254 0
-14 252 0
-14 253 0
-14 -254 0
-15 -252 0
-15 -253 0
-15 254 0
-11 6 16 0
-11 6 46 0
-11 16 46 0
-12 7 17 0
-12 7 47 0
-12 17 47 0
-13 8 18 0
-13 8 48 0
-13 18 48 0
-14 9 19 0
-14 9 49 0
-14 19 49 0
-15 10 20 0
-15 10 50 0
-15 20 50 0
-11 -6 -16 -46 0
-12 -7 -17 -47 0
-13 -8 -18 -48 0
-14 -9 -19 -49 0
-15 -10 -20 -50 0
16 17 18 19 20 0
-16 -255 0
-16 -256 0
-16 -257 0
-17 255 0
-17 -256 0
-17 -257 0
-18 -255 0
-18 256 0
-18 -257 0
-19 255 0
-19 256 0
-19 -257 0
-20 -255 0
-20 -256 0
-20 257 0
-16 11 21 0
-16 11 51 0
-16 21 51 0
-17 12 22 0
-17 12 52 0
-17 22 52 0
-18 13 23 0
-18 13 53 0
-18 23 53 0
-19 14 24 0
-19 14 54 0
-19 24 54 0
-20 15 25 0
-20 15 55 0
-20 25 55 0
-16 -11 -21 -51 0
-17 -12 -22 -52 0
-18 -13 -23 -53 0
-19 -14 -24 -54 0
-20 -15 -25 -55 0
21 0
-22 0
-23 0
-24 0
-25 0
16 26 56 0
-16 -26 0
-16 -56 0
-26 -56 0
30 0
-26 0
-27 0
-28 0
-29 0
25 35 65 0
-25 -35 0
-25 -65 0
-35 -65 0
31 32 33 34 35 0
-31 -258 0
-31 -259 0
-31 -260 0
-32 258 0
-32 -259 0
-32 -260 0
-33 -258 0
-33 259 0
-33 -260 0
-34 258 0
-34 259 0
-34 -260 0
-35 -258 0
-35 -259 0
-35 260 0
-31 66 0
-31 26 0
-32 67 0
-32 27 0
-33 68 0
-33 28 0
-34 69 0
-34 29 0
-35 70 0
-35 30 0
36 37 38 39 40 0
-36 -261 0
-36 -262 0
-36 -263 0
-37 261 0
-37 -262 0
-37 -263 0
-38 -261 0
-38 262 0
-38 -263 0
-39 261 0
-39 262 0
-39 -263 0
-40 -261 0
-40 -262 0
-40 263 0
-36 71 41 0
-36 71 1 0
-36 41 1 0
-37 72 42 0
-37 72 2 0
-37 42 2 0
-38 73 43 0
-38 73 3 0
-38 43 3 0
-39 74 44 0
-39 74 4 0
-39 44 4 0
-40 75 45 0
-40 75 5 0
-40 45 5 0
-36 -71 -41 -1 0
-37 -72 -42 -2 0
-38 -73 -43 -3 0
-39 -74 -44 -4 0
-40 -75 -45 -5 0
41 42 43 44 45 0
-41 -264 0
-41 -265 0
-41 -266 0
-42 264 0
-42 -265 0
-42 -266 0
-43 -264 0
-43 265 0
-43 -266 0
-44 264 0
-44 265 0
-44 -266 0
-45 -264 0
-45 -265 0
-45 266 0
-41 76 46 6 0
-41 76 46 36 0
-41 76 6 36 0
-41 46 6 36 0
-42 77 47 7 0
-42 77 47 37 0
-42 77 7 37 0
-42 47 7 37 0
-43 78 48 8 0
-43 78 48 38 0
-43 78 8 38 0
-43 48 8 38 0
-44 79 49 9 0
-44 79 49 39 0
-44 79 9 39 0
-44 49 9 39 0
-45 80 50 10 0
-45 80 50 40 0
-45 80 10 40 0
-45 50 10 40 0
-41 -76 -46 -6 0
-41 -76 -46 -36 0
-41 -76 -6 -36 0
-41 -46 -6 -36 0
-42 -77 -47 -7 0
-42 -77 -47 -37 0
-42 -77 -7 -37 0
-42 -47 -7 -37 0
-43 -78 -48 -8 0
-43 -78 -48 -38 0
-43 -78 -8 -38 0
-43 -48 -8 -38 0
-44 -79 -49 -9 0
-44 -79 -49 -39 0
-44 -79 -9 -39 0
-44 -49 -9 -39 0
-45 -80 -50 -10 0
-45 -80 -50 -40 0
-45 -80 -10 -40 0
-45 -50 -10 -40 0
46 47 48 49 50 0
-46 -267 0
-46 -268 0
-46 -269 0
-47 267 0
-47 -268 0
-47 -269 0
-48 -267 0
-48 268 0
-48 -269 0
-49 267 0
-49 268 0
-49 -269 0
-50 -267 0
-50 -268 0
-50 269 0
-46 81 51 11 0
-46 81 51 41 0
-46 81 11 41 0
-46 51 11 41 0
-47 82 52 12 0
-47 82 52 42 0
-47 82 12 42 0
-47 52 12 42 0
-48 83 53 13 0
-48 83 53 43 0
-48 83 13 43 0
-48 53 13 43 0
-49 84 54 14 0
-49 84 54 44 0
-49 84 14 44 0
-49 54 14 44 0
-50 85 55 15 0
-50 85 55 45 0
-50 85 15 45 0
-50 55 15 45 0
-46 -81 -51 -11 0
-46 -81 -51 -41 0
-46 -81 -11 -41 0
-46 -51 -11 -41 0
-47 -82 -52 -12 0
-47 -82 -52 -42 0
-47 -82 -12 -42 0
-47 -52 -12 -42 0
-48 -83 -53 -13 0
-48 -83 -53 -43 0
-48 -83 -13 -43 0
-48 -53 -13 -43 0
-49 -84 -54 -14 0
-49 -84 -54 -44 0
-49 -84 -14 -44 0
-49 -54 -14 -44 0
-50 -85 -55 -15 0
-50 -85 -55 -45 0
-50 -85 -15 -45 0
-50 -55 -15 -45 0
51 52 53 54 55 0
-51 -270 0
-51 -271 0
-51 -272 0
-52 270 0
-52 -271 0
-52 -272 0
-53 -270 0
-53 271 0
-53 -272 0
-54 270 0
-54 271 0
-54 -272 0
-55 -270 0
-55 -271 0
-55 272 0
-51 86 56 16 0
-51 86 56 46 0
-51 86 16 46 0
-51 56 16 46 0
-52 87 57 17 0
-52 87 57 47 0
-52 87 17 47 0
-52 57 17 47 0
-53 88 58 18 0
-53 88 58 48 0
-53 88 18 48 0
-53 58 18 48 0
-54 89 59 19 0
-54 89 59 49 0
-54 89 19 49 0
-54 59 19 49 0
-55 90 60 20 0
-55 90 60 50 0
-55 90 20 50 0
-55 60 20 50 0
-51 -86 -56 -16 0
-51 -86 -56 -46 0
-51 -86 -16 -46 0
-51 -56 -16 -46 0
-52 -87 -57 -17 0
-52 -87 -57 -47 0
-52 -87 -17 -47 0
-52 -57 -17 -47 0
-53 -88 -58 -18 0
-53 -88 -58 -48 0
-53 -88 -18 -48 0
-53 -58 -18 -48 0
-54 -89 -59 -19 0
-54 -89 -59 -49 0
-54 -89 -19 -49 0
-54 -59 -19 -49 0
-55 -90 -60 -20 0
-55 -90 -60 -50 0
-55 -90 -20 -50 0
-55 -60 -20 -50 0
58 0
-56 0
-57 0
-59 0
-60 0
93 63 23 53 0
-93 -63 0
-93 -23 0
-93 -53 0
-63 -23 0
-63 -53 0
-23 -53 0
64 0
-61 0
-62 0
-63 0
-65 0
99 69 29 59 0
-99 -69 0
-99 -29 0
-99 -59 0
-69 -29 0
-69 -59 0
-29 -59 0
66 67 68 69 70 0
-66 -273 0
-66 -274 0
-66 -275 0
-67 273 0
-67 -274 0
-67 -275 0
-68 -273 0
-68 274 0
-68 -275 0
-69 273 0
-69 274 0
-69 -275 0
-70 -273 0
-70 -274 0
-70 275 0
-66 101 61 0
-66 101 31 0
-66 61 31 0
-67 102 62 0
-67 102 32 0
-67 62 32 0
-68 103 63 0
-68 103 33 0
-68 63 33 0
-69 104 64 0
-69 104 34 0
-69 64 34 0
-70 105 65 0
-70 105 35 0
-70 65 35 0
-66 -101 -61 -31 0
-67 -102 -62 -32 0
-68 -103 -63 -33 0
-69 -104 -64 -34 0
-70 -105 -65 -35 0
71 72 73 74 75 0
-71 -276 0
-71 -277 0
-71 -278 0
-72 276 0
-72 -277 0
-72 -278 0
-73 -276 0
-73 277 0
-73 -278 0
-74 276 0
-74 277 0
-74 -278 0
-75 -276 0
-75 -277 0
-75 278 0
-71 106 76 0
-71 106 36 0
-71 76 36 0
-72 107 77 0
-72 107 37 0
-72 77 37 0
-73 108 78 0
-73 108 38 0
-73 78 38 0
-74 109 79 0
-74 109 39 0
-74 79 39 0
-75 110 80 0
-75 110 40 0
-75 80 40 0
-71 -106 -76 -36 0
-72 -107 -77 -37 0
-73 -108 -78 -38 0
-74 -109 -79 -39 0
-75 -110 -80 -40 0
76 77 78 79 80 0
-76 -279 0
-76 -280 0
-76 -281 0
-77 279 0
-77 -280 0
-77 -281 0
-78 -279 0
-78 280 0
-78 -281 0
-79 279 0
-79 280 0
-79 -281 0
-80 -279 0
-80 -280 0
-80 281 0
-76 111 81 41 0
-76 111 81 71 0
-76 111 41 71 0
-76 81 41 71 0
-77 112 82 42 0
-77 112 82 72 0
-77 112 42 72 0
-77 82 42 72 0
-78 113 83 43 0
-78 113 83 73 0
-78 113 43 73 0
-78 83 43 73 0
-79 114 84 44 0
-79 114 84 74 0
-79 114 44 74 0
-79 84 44 74 0
-80 115 85 45 0
-80 115 85 75 0
-80 115 45 75 0
-80 85 45 75 0
-76 -111 -81 -41 0
-76 -111 -81 -71 0
-76 -111 -41 -71 0
-76 -81 -41 -71 0
-77 -112 -82 -42 0
-77 -112 -82 -72 0
-77 -112 -42 -72 0
-77 -82 -42 -72 0
-78 -113 -83 -43 0
-78 -113 -83 -73 0
-78 -113 -43 -73 0
-78 -83 -43 -73 0
-79 -114 -84 -44 0
-79 -114 -84 -74 0
-79 -114 -44 -74 0
-79 -84 -44 -74 0
-80 -115 -85 -45 0
-80 -115 -85 -75 0
-80 -115 -45 -75 0
-80 -85 -45 -75 0
84 0
-81 0
-82 0
-83 0
-85 0
119 89 49 79 0
-119 -89 0
-119 -49 0
-119 -79 0
-89 -49 0
-89 -79 0
-49 -79 0
86 87 88 89 90 0
-86 -282 0
-86 -283 0
-86 -284 0
-87 282 0
-87 -283 0
-87 -284 0
-88 -282 0
-88 283 0
-88 -284 0
-89 282 0
-89 283 0
-89 -284 0
-90 -282 0
-90 -283 0
-90 284 0
-86 121 91 51 0
-86 121 91 81 0
-86 121 51 81 0
-86 91 51 81 0
-87 122 92 52 0
-87 122 92 82 0
-87 122 52 82 0
-87 92 52 82 0
-88 123 93 53 0
-88 123 93 83 0
-88 123 53 83 0
-88 93 53 83 0
-89 124 94 54 0
-89 124 94 84 0
-89 124 54 84 0
-89 94 54 84 0
-90 125 95 55 0
-90 125 95 85 0
-90 125 55 85 0
-90 95 55 85 0
-86 -121 -91 -51 0
-86 -121 -91 -81 0
-86 -121 -51 -81 0
-86 -91 -51 -81 0
-87 -122 -92 -52 0
-87 -122 -92 -82 0
-87 -122 -52 -82 0
-87 -92 -52 -82 0
-88 -123 -93 -53 0
-88 -123 -93 -83 0
-88 -123 -53 -83 0
-88 -93 -53 -83 0
-89 -124 -94 -54 0
-89 -124 -94 -84 0
-89 -124 -54 -84 0
-89 -94 -54 -84 0
-90 -125 -95 -55 0
-90 -125 -95 -85 0
-90 -125 -55 -85 0
-90 -95 -55 -85 0
91 92 93 94 95 0
-91 -285 0
-91 -286 0
-91 -287 0
-92 285 0
-92 -286 0
-92 -287 0
-93 -285 0
-93 286 0
-93 -287 0
-94 285 0
-94 286 0
-94 -287 0
-95 -285 0
-95 -286 0
-95 287 0
-91 126 96 56 0
-91 126 96 86 0
-91 126 56 86 0
-91 96 56 86 0
-92 127 97 57 0
-92 127 97 87 0
-92 127 57 87 0
-92 97 57 87 0
-93 128 98 58 0
-93 128 98 88 0
-93 128 58 88 0
-93 98 58 88 0
-94 129 99 59 0
-94 129 99 89 0
-94 129 59 89 0
-94 99 59 89 0
-95 130 100 60 0
-95 130 100 90 0
-95 130 60 90 0
-95 100 60 90 0
-91 -126 -96 -56 0
-91 -126 -96 -86 0
-91 -126 -56 -86 0
-91 -96 -56 -86 0
-92 -127 -97 -57 0
-92 -127 -97 -87 0
-92 -127 -57 -87 0
-92 -97 -57 -87 0
-93 -128 -98 -58 0
-93 -128 -98 -88 0
-93 -128 -58 -88 0
-93 -98 -58 -88 0
-94 -129 -99 -59 0
-94 -129 -99 -89 0
-94 -129 -59 -89 0
-94 -99 -59 -89 0
-95 -130 -100 -60 0
-95 -130 -100 -90 0
-95 -130 -60 -90 0
-95 -100 -60 -90 0
96 97 98 99 100 0
-96 -288 0
-96 -289 0
-96 -290 0
-97 288 0
-97 -289 0
-97 -290 0
-98 -288 0
-98 289 0
-98 -290 0
-99 288 0
-99 289 0
-99 -290 0
-100 -288 0
-100 -289 0
-100 290 0
-96 131 101 61 0
-96 131 101 91 0
-96 131 61 91 0
-96 101 61 91 0
-97 132 102 62 0
-97 132 102 92 0
-97 132 62 92 0
-97 102 62 92 0
-98 133 103 63 0
-98 133 103 93 0
-98 133 63 93 0
-98 103 63 93 0
-99 134 104 64 0
-99 134 104 94 0
-99 134 64 94 0
-99 104 64 94 0
-100 135 105 65 0
-100 135 105 95 0
-100 135 65 95 0
-100 105 65 95 0
-96 -131 -101 -61 0
-96 -131 -101 -91 0
-96 -131 -61 -91 0
-96 -101 -61 -91 0
-97 -132 -102 -62 0
-97 -132 -102 -92 0
-97 -132 -62 -92 0
-97 -102 -62 -92 0
-98 -133 -103 -63 0
-98 -133 -103 -93 0
-98 -133 -63 -93 0
-98 -103 -63 -93 0
-99 -134 -104 -64 0
-99 -134 -104 -94 0
-99 -134 -64 -94 0
-99 -104 -64 -94 0
-100 -135 -105 -65 0
-100 -135 -105 -95 0
-100 -135 -65 -95 0
-100 -105 -65 -95 0
101 102 103 104 105 0
-101 -291 0
-101 -292 0
-101 -293 0
-102 291 0
-102 -292 0
-102 -293 0
-103 -291 0
-103 292 0
-103 -293 0
-104 291 0
-104 292 0
-104 -293 0
-105 -291 0
-105 -292 0
-105 293 0
-101 136 96 0
-101 136 66 0
-101 96 66 0
-102 137 97 0
-102 137 67 0
-102 97 67 0
-103 138 98 0
-103 138 68 0
-103 98 68 0
-104 139 99 0
-104 139 69 0
-104 99 69 0
-105 140 100 0
-105 140 70 0
-105 100 70 0
-101 -136 -96 -66 0
-102 -137 -97 -67 0
-103 -138 -98 -68 0
-104 -139 -99 -69 0
-105 -140 -100 -70 0
106 107 108 109 110 0
-106 -294 0
-106 -295 0
-106 -296 0
-107 294 0
-107 -295 0
-107 -296 0
-108 -294 0
-108 295 0
-108 -296 0
-109 294 0
-109 295 0
-109 -296 0
-110 -294 0
-110 -295 0
-110 296 0
-106 141 111 0
-106 141 71 0
-106 111 71 0
-107 142 112 0
-107 142 72 0
-107 112 72 0
-108 143 113 0
-108 143 73 0
-108 113 73 0
-109 144 114 0
-109 144 74 0
-109 114 74 0
-110 145 115 0
-110 145 75 0
-110 115 75 0
-106 -141 -111 -71 0
-107 -142 -112 -72 0
-108 -143 -113 -73 0
-109 -144 -114 -74 0
-110 -145 -115 -75 0
111 112 113 114 115 0
-111 -297 0
-111 -298 0
-111 -299 0
-112 297 0
-112 -298 0
-112 -299 0
-113 -297 0
-113 298 0
-113 -299 0
-114 297 0
-114 298 0
-114 -299 0
-115 -297 0
-115 -298 0
-115 299 0
-111 146 116 76 0
-111 146 116 106 0
-111 146 76 106 0
-111 116 76 106 0
-112 147 117 77 0
-112 147 117 107 0
-112 147 77 107 0
-112 117 77 107 0
-113 148 118 78 0
-113 148 118 108 0
-113 148 78 108 0
-113 118 78 108 0
-114 149 119 79 0
-114 149 119 109 0
-114 149 79 109 0
-114 119 79 109 0
-115 150 120 80 0
-115 150 120 110 0
-115 150 80 110 0
-115 120 80 110 0
-111 -146 -116 -76 0
-111 -146 -116 -106 0
-111 -146 -76 -106 0
-111 -116 -76 -106 0
-112 -147 -117 -77 0
-112 -147 -117 -107 0
-112 -147 -77 -107 0
-112 -117 -77 -107 0
-113 -148 -118 -78 0
-113 -148 -118 -108 0
-113 -148 -78 -108 0
-113 -118 -78 -108 0
-114 -149 -119 -79 0
-114 -149 -119 -109 0
-114 -149 -79 -109 0
-114 -119 -79 -109 0
-115 -150 -120 -80 0
-115 -150 -120 -110 0
-115 -150 -80 -110 0
-115 -120 -80 -110 0
116 117 118 119 120 0
-116 -300 0
-116 -301 0
-116 -302 0
-117 300 0
-117 -301 0
-117 -302 0
-118 -300 0
-118 301 0
-118 -302 0
-119 300 0
-119 301 0
-119 -302 0
-120 -300 0
-120 -301 0
-120 302 0
-116 151 121 81 0
-116 151 121 111 0
-116 151 81 111 0
-116 121 81 111 0
-117 152 122 82 0
-117 152 122 112 0
-117 152 82 112 0
-117 122 82 112 0
-118 153 123 83 0
-118 153 123 113 0
-118 153 83 113 0
-118 123 83 113 0
-119 154 124 84 0
-119 154 124 114 0
-119 154 84 114 0
-119 124 84 114 0
-120 155 125 85 0
-120 155 125 115 0
-120 155 85 115 0
-120 125 85 115 0
-116 -151 -121 -81 0
-116 -151 -121 -111 0
-116 -151 -81 -111 0
-116 -121 -81 -111 0
-117 -152 -122 -82 0
-117 -152 -122 -112 0
-117 -152 -82 -112 0
-117 -122 -82 -112 0
-118 -153 -123 -83 0
-118 -153 -123 -113 0
-118 -153 -83 -113 0
-118 -123 -83 -113 0
-119 -154 -124 -84 0
-119 -154 -124 -114 0
-119 -154 -84 -114 0
-119 -124 -84 -114 0
-120 -155 -125 -85 0
-120 -155 -125 -115 0
-120 -155 -85 -115 0
-120 -125 -85 -115 0
121 122 123 124 125 0
-121 -303 0
-121 -304 0
-121 -305 0
-122 303 0
-122 -304 0
-122 -305 0
-123 -303 0
-123 304 0
-123 -305 0
-124 303 0
-124 304 0
-124 -305 0
-125 -303 0
-125 -304 0
-125 305 0
-121 156 126 86 0
-121 156 126 116 0
-121 156 86 116 0
-121 126 86 116 0
-122 157 127 87 0
-122 157 127 117 0
-122 157 87 117 0
-122 127 87 117 0
-123 158 128 88 0
-123 158 128 118 0
-123 158 88 118 0
-123 128 88 118 0
-124 159 129 89 0
-124 159 129 119 0
-124 159 89 119 0
-124 129 89 119 0
-125 160 130 90 0
-125 160 130 120 0
-125 160 90 120 0
-125 130 90 120 0
-121 -156 -126 -86 0
-121 -156 -126 -116 0
-121 -156 -86 -116 0
-121 -126 -86 -116 0
-122 -157 -127 -87 0
-122 -157 -127 -117 0
-122 -157 -87 -117 0
-122 -127 -87 -117 0
-123 -158 -128 -88 0
-123 -158 -128 -118 0
-123 -158 -88 -118 0
-123 -128 -88 -118 0
-124 -159 -129 -89 0
-124 -159 -129 -119 0
-124 -159 -89 -119 0
-124 -129 -89 -119 0
-125 -160 -130 -90 0
-125 -160 -130 -120 0
-125 -160 -90 -120 0
-125 -130 -90 -120 0
126 127 128 129 130 0
-126 -306 0
-126 -307 0
-126 -308 0
-127 306 0
-127 -307 0
-127 -308 0
-128 -306 0
-128 307 0
-128 -308 0
-129 306 0
-129 307 0
-129 -308 0
-130 -306 0
-130 -307 0
-130 308 0
-126 161 131 91 0
-126 161 131 121 0
-126 161 91 121 0
-126 131 91 121 0
-127 162 132 92 0
-127 162 132 122 0
-127 162 92 122 0
-127 132 92 122 0
-128 163 133 93 0
-128 163 133 123 0
-128 163 93 123 0
-128 133 93 123 0
-129 164 134 94 0
-129 164 134 124 0
-129 164 94 124 0
-129 134 94 124 0
-130 165 135 95 0
-130 165 135 125 0
-130 165 95 125 0
-130 135 95 125 0
-126 -161 -131 -91 0
-126 -161 -131 -121 0
-126 -161 -91 -121 0
-126 -131 -91 -121 0
-127 -162 -132 -92 0
-127 -162 -132 -122 0
-127 -162 -92 -122 0
-127 -132 -92 -122 0
-128 -163 -133 -93 0
-128 -163 -133 -123 0
-128 -163 -93 -123 0
-128 -133 -93 -123 0
-129 -164 -134 -94 0
-129 -164 -134 -124 0
-129 -164 -94 -124 0
-129 -134 -94 -124 0
-130 -165 -135 -95 0
-130 -165 -135 -125 0
-130 -165 -95 -125 0
-130 -135 -95 -125 0
131 132 133 134 135 0
-131 -309 0
-131 -310 0
-131 -311 0
-132 309 0
-132 -310 0
-132 -311 0
-133 -309 0
-133 310 0
-133 -311 0
-134 309 0
-134 310 0
-134 -311 0
-135 -309 0
-135 -310 0
-135 311 0
-131 166 136 96 0
-131 166 136 126 0
-131 166 96 126 0
-131 136 96 126 0
-132 167 137 97 0
-132 167 137 127 0
-132 167 97 127 0
-132 137 97 127 0
-133 168 138 98 0
-133 168 138 128 0
-133 168 98 128 0
-133 138 98 128 0
-134 169 139 99 0
-134 169 139 129 0
-134 169 99 129 0
-134 139 99 129 0
-135 170 140 100 0
-135 170 140 130 0
-135 170 100 130 0
-135 140 100 130 0
-131 -166 -136 -96 0
-131 -166 -136 -126 0
-131 -166 -96 -126 0
-131 -136 -96 -126 0
-132 -167 -137 -97 0
-132 -167 -137 -127 0
-132 -167 -97 -127 0
-132 -137 -97 -127 0
-133 -168 -138 -98 0
-133 -168 -138 -128 0
-133 -168 -98 -128 0
-133 -138 -98 -128 0
-134 -169 -139 -99 0
-134 -169 -139 -129 0
-134 -169 -99 -129 0
-134 -139 -99 -129 0
-135 -170 -140 -100 0
-135 -170 -140 -130 0
-135 -170 -100 -130 0
-135 -140 -100 -130 0
136 137 138 139 140 0
-136 -312 0
-136 -313 0
-136 -314 0
-137 312 0
-137 -313 0
-137 -314 0
-138 -312 0
-138 313 0
-138 -314 0
-139 312 0
-139 313 0
-139 -314 0
-140 -312 0
-140 -313 0
-140 314 0
-136 171 131 0
-136 171 101 0
-136 131 101 0
-137 172 132 0
-137 172 102 0
-137 132 102 0
-138 173 133 0
-138 173 103 0
-138 133 103 0
-139 174 134 0
-139 174 104 0
-139 134 104 0
-140 175 135 0
-140 175 105 0
-140 135 105 0
-136 -171 -131 -101 0
-137 -172 -132 -102 0
-138 -173 -133 -103 0
-139 -174 -134 -104 0
-140 -175 -135 -105 0
141 142 143 144 145 0
-141 -315 0
-141 -316 0
-141 -317 0
-142 315 0
-142 -316 0
-142 -317 0
-143 -315 0
-143 316 0
-143 -317 0
-144 315 0
-144 316 0
-144 -317 0
-145 -315 0
-145 -316 0
-145 317 0
-141 176 146 0
-141 176 106 0
-141 146 106 0
-142 177 147 0
-142 177 107 0
-142 147 107 0
-143 178 148 0
-143 178 108 0
-143 148 108 0
-144 179 149 0
-144 179 109 0
-144 149 109 0
-145 180 150 0
-145 180 110 0
-145 150 110 0
-141 -176 -146 -106 0
-142 -177 -147 -107 0
-143 -178 -148 -108 0
-144 -179 -149 -109 0
-145 -180 -150 -110 0
146 147 148 149 150 0
-146 -318 0
-146 -319 0
-146 -320 0
-147 318 0
-147 -319 0
-147 -320 0
-148 -318 0
-148 319 0
-148 -320 0
-149 318 0
-149 319 0
-149 -320 0
-150 -318 0
-150 -319 0
-150 320 0
-146 181 151 111 0
-146 181 151 141 0
-146 181 111 141 0
-146 151 111 141 0
-147 182 152 112 0
-147 182 152 142 0
-147 182 112 142 0
-147 152 112 142 0
-148 183 153 113 0
-148 183 153 143 0
-148 183 113 143 0
-148 153 113 143 0
-149 184 154 114 0
-149 184 154 144 0
-149 184 114 144 0
-149 154 114 144 0
-150 185 155 115 0
-150 185 155 145 0
-150 185 115 145 0
-150 155 115 145 0
-146 -181 -151 -111 0
-146 -181 -151 -141 0
-146 -181 -111 -141 0
-146 -151 -111 -141 0
-147 -182 -152 -112 0
-147 -182 -152 -142 0
-147 -182 -112 -142 0
-147 -152 -112 -142 0
-148 -183 -153 -113 0
-148 -183 -153 -143 0
-148 -183 -113 -143 0
-148 -153 -113 -143 0
-149 -184 -154 -114 0
-149 -184 -154 -144 0
-149 -184 -114 -144 0
-149 -154 -114 -144 0
-150 -185 -155 -115 0
-150 -185 -155 -145 0
-150 -185 -115 -145 0
-150 -155 -115 -145 0
153 0
-151 0
-152 0
-154 0
-155 0
188 158 118 148 0
-188 -158 0
-188 -118 0
-188 -148 0
-158 -118 0
-158 -148 0
-118 -148 0
157 0
-156 0
-158 0
-159 0
-160 0
192 162 122 152 0
-192 -162 0
-192 -122 0
-192 -152 0
-162 -122 0
-162 -152 0
-122 -152 0
161 0
-162 0
-163 0
-164 0
-165 0
196 166 126 156 0
-196 -166 0
-196 -126 0
-196 -156 0
-166 -126 0
-166 -156 0
-126 -156 0
166 167 168 169 170 0
-166 -321 0
-166 -322 0
-166 -323 0
-167 321 0
-167 -322 0
-167 -323 0
-168 -321 0
-168 322 0
-168 -323 0
-169 321 0
-169 322 0
-169 -323 0
-170 -321 0
-170 -322 0
-170 323 0
-166 201 171 131 0
-166 201 171 161 0
-166 201 131 161 0
-166 171 131 161 0
-167 202 172 132 0
-167 202 172 162 0
-167 202 132 162 0
-167 172 132 162 0
-168 203 173 133 0
-168 203 173 163 0
-168 203 133 163 0
-168 173 133 163 0
-169 204 174 134 0
-169 204 174 164 0
-169 204 134 164 0
-169 174 134 164 0
-170 205 175 135 0
-170 205 175 165 0
-170 205 135 165 0
-170 175 135 165 0
-166 -201 -171 -131 0
-166 -201 -171 -161 0
-166 -201 -131 -161 0
-166 -171 -131 -161 0
-167 -202 -172 -132 0
-167 -202 -172 -162 0
-167 -202 -132 -162 0
-167 -172 -132 -162 0
-168 -203 -173 -133 0
-168 -203 -173 -163 0
-168 -203 -133 -163 0
-168 -173 -133 -163 0
-169 -204 -174 -134 0
-169 -204 -174 -164 0
-169 -204 -134 -164 0
-169 -174 -134 -164 0
-170 -205 -175 -135 0
-170 -205 -175 -165 0
-170 -205 -135 -165 0
-170 -175 -135 -165 0
171 172 173 174 175 0
-171 -324 0
-171 -325 0
-171 -326 0
-172 324 0
-172 -325 0
-172 -326 0
-173 -324 0
-173 325 0
-173 -326 0
-174 324 0
-174 325 0
-174 -326 0
-175 -324 0
-175 -325 0
-175 326 0
-171 206 166 0
-171 206 136 0
-171 166 136 0
-172 207 167 0
-172 207 137 0
-172 167 137 0
-173 208 168 0
-173 208 138 0
-173 168 138 0
-174 209 169 0
-174 209 139 0
-174 169 139 0
-175 210 170 0
-175 210 140 0
-175 170 140 0
-171 -206 -166 -136 0
-172 -207 -167 -137 0
-173 -208 -168 -138 0
-174 -209 -169 -139 0
-175 -210 -170 -140 0
177 0
-176 0
-178 0
-179 0
-180 0
212 182 142 0
-212 -182 0
-212 -142 0
-182 -142 0
181 182 183 184 185 0
-181 -327 0
-181 -328 0
-181 -329 0
-182 327 0
-182 -328 0
-182 -329 0
-183 -327 0
-183 328 0
-183 -329 0
-184 327 0
-184 328 0
-184 -329 0
-185 -327 0
-185 -328 0
-185 329 0
-181 216 186 146 0
-181 216 186 176 0
-181 216 146 176 0
-181 186 146 176 0
-182 217 187 147 0
-182 217 187 177 0
-182 217 147 177 0
-182 187 147 177 0
-183 218 188 148 0
-183 218 188 178 0
-183 218 148 178 0
-183 188 148 178 0
-184 219 189 149 0
-184 219 189 179 0
-184 219 149 179 0
-184 189 149 179 0
-185 220 190 150 0
-185 220 190 180 0
-185 220 150 180 0
-185 190 150 180 0
-181 -216 -186 -146 0
-181 -216 -186 -176 0
-181 -216 -146 -176 0
-181 -186 -146 -176 0
-182 -217 -187 -147 0
-182 -217 -187 -177 0
-182 -217 -147 -177 0
-182 -187 -147 -177 0
-183 -218 -188 -148 0
-183 -218 -188 -178 0
-183 -218 -148 -178 0
-183 -188 -148 -178 0
-184 -219 -189 -149 0
-184 -219 -189 -179 0
-184 -219 -149 -179 0
-184 -189 -149 -179 0
-185 -220 -190 -150 0
-185 -220 -190 -180 0
-185 -220 -150 -180 0
-185 -190 -150 -180 0
186 187 188 189 190 0
-186 -330 0
-186 -331 0
-186 -332 0
-187 330 0
-187 -331 0
-187 -332 0
-188 -330 0
-188 331 0
-188 -332 0
-189 330 0
-189 331 0
-189 -332 0
-190 -330 0
-190 -331 0
-190 332 0
-186 221 191 151 0
-186 221 191 181 0
-186 221 151 181 0
-186 191 151 181 0
-187 222 192 152 0
-187 222 192 182 0
-187 222 152 182 0
-187 192 152 182 0
-188 223 193 153 0
-188 223 193 183 0
-188 223 153 183 0
-188 193 153 183 0
-189 224 194 154 0
-189 224 194 184 0
-189 224 154 184 0
-189 194 154 184 0
-190 225 195 155 0
-190 225 195 185 0
-190 225 155 185 0
-190 195 155 185 0
-186 -221 -191 -151 0
-186 -221 -191 -181 0
-186 -221 -151 -181 0
-186 -191 -151 -181 0
-187 -222 -192 -152 0
-187 -222 -192 -182 0
-187 -222 -152 -182 0
-187 -192 -152 -182 0
-188 -223 -193 -153 0
-188 -223 -193 -183 0
-188 -223 -153 -183 0
-188 -193 -153 -183 0
-189 -224 -194 -154 0
-189 -224 -194 -184 0
-189 -224 -154 -184 0
-189 -194 -154 -184 0
-190 -225 -195 -155 0
-190 -225 -195 -185 0
-190 -225 -155 -185 0
-190 -195 -155 -185 0
191 192 193 194 195 0
-191 -333 0
-191 -334 0
-191 -335 0
-192 333 0
-192 -334 0
-192 -335 0
-193 -333 0
-193 334 0
-193 -335 0
-194 333 0
-194 334 0
-194 -335 0
-195 -333 0
-195 -334 0
-195 335 0
-191 226 196 156 0
-191 226 196 186 0
-191 226 156 186 0
-191 196 156 186 0
-192 227 197 157 0
-192 227 197 187 0
-192 227 157 187 0
-192 197 157 187 0
-193 228 198 158 0
-193 228 198 188 0
-193 228 158 188 0
-193 198 158 188 0
-194 229 199 159 0
-194 229 199 189 0
-194 229 159 189 0
-194 199 159 189 0
-195 230 200 160 0
-195 230 200 190 0
-195 230 160 190 0
-195 200 160 190 0
-191 -226 -196 -156 0
-191 -226 -196 -186 0
-191 -226 -156 -186 0
-191 -196 -156 -186 0
-192 -227 -197 -157 0
-192 -227 -197 -187 0
-192 -227 -157 -187 0
-192 -197 -157 -187 0
-193 -228 -198 -158 0
-193 -228 -198 -188 0
-193 -228 -158 -188 0
-193 -198 -158 -188 0
-194 -229 -199 -159 0
-194 -229 -199 -189 0
-194 -229 -159 -189 0
-194 -199 -159 -189 0
-195 -230 -200 -160 0
-195 -230 -200 -190 0
-195 -230 -160 -190 0
-195 -200 -160 -190 0
196 197 198 199 200 0
-196 -336 0
-196 -337 0
-196 -338 0
-197 336 0
-197 -337 0
-197 -338 0
-198 -336 0
-198 337 0
-198 -338 0
-199 336 0
-199 337 0
-199 -338 0
-200 -336 0
-200 -337 0
-200 338 0
-196 231 201 161 0
-196 231 201 191 0
-196 231 161 191 0
-196 201 161 191 0
-197 232 202 162 0
-197 232 202 192 0
-197 232 162 192 0
-197 202 162 192 0
-198 233 203 163 0
-198 233 203 193 0
-198 233 163 193 0
-198 203 163 193 0
-199 234 204 164 0
-199 234 204 194 0
-199 234 164 194 0
-199 204 164 194 0
-200 235 205 165 0
-200 235 205 195 0
-200 235 165 195 0
-200 205 165 195 0
-196 -231 -201 -161 0
-196 -231 -201 -191 0
-196 -231 -161 -191 0
-196 -201 -161 -191 0
-197 -232 -202 -162 0
-197 -232 -202 -192 0
-197 -232 -162 -192 0
-197 -202 -162 -192 0
-198 -233 -203 -163 0
-198 -233 -203 -193 0
-198 -233 -163 -193 0
-198 -203 -163 -193 0
-199 -234 -204 -164 0
-199 -234 -204 -194 0
-199 -234 -164 -194 0
-199 -204 -164 -194 0
-200 -235 -205 -165 0
-200 -235 -205 -195 0
-200 -235 -165 -195 0
-200 -205 -165 -195 0
201 202 203 204 205 0
-201 -339 0
-201 -340 0
-201 -341 0
-202 339 0
-202 -340 0
-202 -341 0
-203 -339 0
-203 340 0
-203 -341 0
-204 339 0
-204 340 0
-204 -341 0
-205 -339 0
-205 -340 0
-205 341 0
-201 236 206 166 0
-201 236 206 196 0
-201 236 166 196 0
-201 206 166 196 0
-202 237 207 167 0
-202 237 207 197 0
-202 237 167 197 0
-202 207 167 197 0
-203 238 208 168 0
-203 238 208 198 0
-203 238 168 198 0
-203 208 168 198 0
-204 239 209 169 0
-204 239 209 199 0
-204 239 169 199 0
-204 209 169 199 0
-205 240 210 170 0
-205 240 210 200 0
-205 240 170 200 0
-205 210 170 200 0
-201 -236 -206 -166 0
-201 -236 -206 -196 0
-201 -236 -166 -196 0
-201 -206 -166 -196 0
-202 -237 -207 -167 0
-202 -237 -207 -197 0
-202 -237 -167 -197 0
-202 -207 -167 -197 0
-203 -238 -208 -168 0
-203 -238 -208 -198 0
-203 -238 -168 -198 0
-203 -208 -168 -198 0
-204 -239 -209 -169 0
-204 -239 -209 -199 0
-204 -239 -169 -199 0
-204 -209 -169 -199 0
-205 -240 -210 -170 0
-205 -240 -210 -200 0
-205 -240 -170 -200 0
-205 -210 -170 -200 0
206 207 208 209 210 0
-206 -342 0
-206 -343 0
-206 -344 0
-207 342 0
-207 -343 0
-207 -344 0
-208 -342 0
-208 343 0
-208 -344 0
-209 342 0
-209 343 0
-209 -344 0
-210 -342 0
-210 -343 0
-210 344 0
-206 241 201 0
-206 241 171 0
-206 201 171 0
-207 242 202 0
-207 242 172 0
-207 202 172 0
-208 243 203 0
-208 243 173 0
-208 203 173 0
-209 244 204 0
-209 244 174 0
-209 204 174 0
-210 245 205 0
-210 245 175 0
-210 205 175 0
-206 -241 -201 -171 0
-207 -242 -202 -172 0
-208 -243 -203 -173 0
-209 -244 -204 -174 0
-210 -245 -205 -175 0
211 212 213 214 215 0
-211 -345 0
-211 -346 0
-211 -347 0
-212 345 0
-212 -346 0
-212 -347 0
-213 -345 0
-213 346 0
-213 -347 0
-214 345 0
-214 346 0
-214 -347 0
-215 -345 0
-215 -346 0
-215 347 0
-211 176 0
-211 216 0
-212 177 0
-212 217 0
-213 178 0
-213 218 0
-214 179 0
-214 219 0
-215 180 0
-215 220 0
216 217 218 219 220 0
-216 -348 0
-216 -349 0
-216 -350 0
-217 348 0
-217 -349 0
-217 -350 0
-218 -348 0
-218 349 0
-218 -350 0
-219 348 0
-219 349 0
-219 -350 0
-220 -348 0
-220 -349 0
-220 350 0
-216 181 221 0
-216 181 211 0
-216 221 211 0
-217 182 222 0
-217 182 212 0
-217 222 212 0
-218 183 223 0
-218 183 213 0
-218 223 213 0
-219 184 224 0
-219 184 214 0
-219 224 214 0
-220 185 225 0
-220 185 215 0
-220 225 215 0
-216 -181 -221 -211 0
-217 -182 -222 -212 0
-218 -183 -223 -213 0
-219 -184 -224 -214 0
-220 -185 -225 -215 0
221 222 223 224 225 0
-221 -351 0
-221 -352 0
-221 -353 0
-222 351 0
-222 -352 0
-222 -353 0
-223 -351 0
-223 352 0
-223 -353 0
-224 351 0
-224 352 0
-224 -353 0
-225 -351 0
-225 -352 0
-225 353 0
-221 186 226 0
-221 186 216 0
-221 226 216 0
-222 187 227 0
-222 187 217 0
-222 227 217 0
-223 188 228 0
-223 188 218 0
-223 228 218 0
-224 189 229 0
-224 189 219 0
-224 229 219 0
-225 190 230 0
-225 190 220 0
-225 230 220 0
-221 -186 -226 -216 0
-222 -187 -227 -217 0
-223 -188 -228 -218 0
-224 -189 -229 -219 0
-225 -190 -230 -220 0
226 227 228 229 230 0
-226 -354 0
-226 -355 0
-226 -356 0
-227 354 0
-227 -355 0
-227 -356 0
-228 -354 0
-228 355 0
-228 -356 0
-229 354 0
-229 355 0
-229 -356 0
-230 -354 0
-230 -355 0
-230 356 0
-226 191 231 0
-226 191 221 0
-226 231 221 0
-227 192 232 0
-227 192 222 0
-227 232 222 0
-228 193 233 0
-228 193 223 0
-228 233 223 0
-229 194 234 0
-229 194 224 0
-229 234 224 0
-230 195 235 0
-230 195 225 0
-230 235 225 0
-226 -191 -231 -221 0
-227 -192 -232 -222 0
-228 -193 -233 -223 0
-229 -194 -234 -224 0
-230 -195 -235 -225 0
231 232 233 234 235 0
-231 -357 0
-231 -358 0
-231 -359 0
-232 357 0
-232 -358 0
-232 -359 0
-233 -357 0
-233 358 0
-233 -359 0
-234 357 0
-234 358 0
-234 -359 0
-235 -357 0
-235 -358 0
-235 359 0
-231 196 236 0
-231 196 226 0
-231 236 226 0
-232 197 237 0
-232 197 227 0
-232 237 227 0
-233 198 238 0
-233 198 228 0
-233 238 228 0
-234 199 239 0
-234 199 229 0
-234 239 229 0
-235 200 240 0
-235 200 230 0
-235 240 230 0
-231 -196 -236 -226 0
-232 -197 -237 -227 0
-233 -198 -238 -228 0
-234 -199 -239 -229 0
-235 -200 -240 -230 0
236 237 238 239 240 0
-236 -360 0
-236 -361 0
-236 -362 0
-237 360 0
-237 -361 0
-237 -362 0
-238 -360 0
-238 361 0
-238 -362 0
-239 360 0
-239 361 0
-239 -362 0
-240 -360 0
-240 -361 0
-240 362 0
-236 201 241 0
-236 201 231 0
-236 241 231 0
-237 202 242 0
-237 202 232 0
-237 242 232 0
-238 203 243 0
-238 203 233 0
-238 243 233 0
-239 204 244 0
-239 204 234 0
-239 244 234 0
-240 205 245 0
-240 205 235 0
-240 245 235 0
-236 -201 -241 -231 0
-237 -202 -242 -232 0
-238 -203 -243 -233 0
-239 -204 -244 -234 0
-240 -205 -245 -235 0
245 0
-241 0
-242 0
-243 0
-244 0
210 240 0
-210 -240 0